SCEL3_3_1_1_0_0_2/1
1.00000000
                       1.75475022      -1.75475022       0.00000000
                       1.75475022       1.75475022       0.00000000
                      -1.75475022       0.00000000       5.26425067
Cr Ni 
1 2 
Direct
               0.0000000    0.0000000    0.0000000 Cr
               0.6666667    0.6666667    0.3333333 Ni
               0.3333333    0.3333333    0.6666667 Ni

